JulietBench/Juliet_Based_Patch_Bench/linux/CWE-189-Numeric-Errors/CVE_2011_1476_b769f49463711205d57286e64cf535ed4daf59e9/Resultmidi_synth_load_patch_Snippet_patch1NEQ.smt2
; benchmark generated from python API
(set-info :status unknown)
(declare-fun R () (_ BitVec 32))
(declare-fun rdx () (_ BitVec 64))
(declare-fun rdi () (_ BitVec 64))
(declare-fun rsi () (_ BitVec 64))
(assert
 (let (($x860 (= (_ bv4294967274 32) R)))
 (let ((?x10 ((_ extract 31 0) rdx)))
 (let ((?x6 ((_ extract 31 0) rdi)))
 (let (($x16 (bvslt ?x6 ?x10)))
 (let (($x854 (and $x16 $x860)))
 (let ((?x8 ((_ extract 31 0) rsi)))
 (let (($x857 (= R ?x8)))
 (let (($x51 (bvsge ?x6 ?x10)))
 (let ((?x72 (bvmul (_ bv4294967295 32) ?x10)))
 (let ((?x73 (bvadd ?x6 ?x72)))
 (let (($x874 (bvuge ?x73 ?x8)))
 (let (($x883 (and $x874 $x51 $x857)))
 (let (($x856 (= R ?x73)))
 (let (($x866 (bvult ?x73 ?x8)))
 (let (($x848 (and $x866 $x51 $x856)))
 (let (($x884 (or $x848 $x883 $x854)))
 (let (($x887 (not $x884)))
 (let (($x844 (bvsge ?x73 ?x8)))
 (let (($x858 (and $x844 $x51 $x857)))
 (let (($x78 (bvslt ?x73 ?x8)))
 (let (($x11 (and $x78 $x51 $x856)))
 (let (($x852 (or $x11 $x858 $x854)))
 (let (($x886 (not $x852)))
 (let (($x888 (and $x886 $x887)))
 (let (($x885 (and $x852 $x884)))
 (let (($x889 (or $x885 $x888)))
 (not $x889))))))))))))))))))))))))))))
(check-sat)
